Traveling Salesman Problem/TSP_generados/Aleatorio1620390990_12.tsp
NAME: Aleatorio1620390990_12.tsp
COMMENT: Randomly generated scenario
TYPE: TSP
DIMENSION: 12
EDGE_WEIGHT_TYPE: ATT
NODE_COORD_SECTION
1 40.41 28.39
2 46.23 36.92
3 24.41 40.94
4 35.16 22.24
5 0.35 31.77
6 4.8 10.09
7 6.67 24.52
8 0.3 47.0
9 0.84 37.94
10 40.16 30.78
11 4.24 38.03
12 22.69 28.26
