Traveling Salesman Problem/TSP_generados/Aleatorio1620390990_12.opt.tour
NAME: Aleatorio1620390990_12.opt.tour
COMMENT: Optimal solution for Aleatorio1620390990_12 (149.0727005693764)
TYPE: TOUR
DIMENSION: 12
TOUR_SECTION
1 10 2 3 8 11 9 5 7 6 12 4
-1
EOF
